34 124
26 98
28 43
14 181
50 88
11 59
93 16
51 58
16 91
80 54
15 200
29 189
9 155
40 3
65 37
7 65
28 56
36 5
31 52
13 186
24 153
22 76
66 18
90 13
24 176
31 2
13 15
11 48
64 26
18 170
26 134
12 181
51 13
91 33
53 21
86 15
7 117
14 29
75 33
33 35
14 16
12 174
92 8
24 5
14 27
24 70
44 74
54 2
100 12
26 98
